8
[-1, 509, 600, 989, 909, 397, 926, 479, 
509, -1, 521, 562, 478, 238, 421, 218, 
600, 521, -1, 571, 523, 674, 714, 704, 
989, 562, 571, -1, 84, 800, 321, 766, 
909, 478, 523, 84, -1, 716, 276, 683, 
397, 238, 674, 800, 716, -1, 625, 82, 
926, 421, 714, 321, 276, 625, -1, 566, 
479, 218, 704, 766, 683, 82, 566, -1]